(declare-const a Real)
(declare-const b Real)
(declare-const c Real)
(assert (= (+ a b c) 3))
(assert (> a 0))
(assert (> b 0))
(assert (> c 0))
(assert (not (<= (+ (* -3 (pow (+ (pow a 2) (pow c 2) (* a c)) (/ 1 2))) (* -3 (pow (+ (pow b 2) (pow c 2) (* b c)) (/ 1 2))) (* a (pow 3 (/ 1 2))) (* b (pow 3 (/ 1 2))) (* c (pow 3 (/ 1 2))) (* (pow 3 (/ 1 2)) (+ (* -1 a) (* -1 b) (* -1 (pow (* a b) (/ 1 2)))))) 0)))
(check-sat)
(get-model)
(exit)